p cnf 141 570
-9 -33 0
-10 -33 0
9 10 33 0
9 10 -34 0
-9 -10 -34 0
-9 10 34 0
9 -10 34 0
33 -35 0
-11 -35 0
11 -33 35 0
11 -33 -36 0
-11 33 -36 0
11 33 36 0
-11 -33 36 0
35 -37 0
-12 -37 0
12 -35 37 0
12 -35 -38 0
-12 35 -38 0
12 35 38 0
-12 -35 38 0
37 -39 0
-13 -39 0
13 -37 39 0
13 -37 -40 0
-13 37 -40 0
13 37 40 0
-13 -37 40 0
39 -41 0
-14 -41 0
14 -39 41 0
14 -39 -42 0
-14 39 -42 0
14 39 42 0
-14 -39 42 0
41 -43 0
-15 -43 0
15 -41 43 0
15 -41 -44 0
-15 41 -44 0
15 41 44 0
-15 -41 44 0
43 -45 0
-16 -45 0
16 -43 45 0
16 -43 -46 0
-16 43 -46 0
16 43 46 0
-16 -43 46 0
10 -47 0
9 -47 0
-9 -10 47 0
-9 -10 -48 0
9 10 -48 0
9 -10 48 0
-9 10 48 0
-10 -11 49 0
-11 -47 49 0
-10 -47 49 0
10 11 -49 0
11 47 -49 0
10 47 -49 0
11 -49 -50 0
10 -49 -50 0
47 -49 -50 0
-11 49 50 0
-10 49 50 0
-47 49 50 0
-10 -11 -47 50 0
10 11 47 -50 0
-11 -12 51 0
-12 -49 51 0
-11 -49 51 0
11 12 -51 0
12 49 -51 0
11 49 -51 0
12 -51 -52 0
11 -51 -52 0
49 -51 -52 0
-12 51 52 0
-11 51 52 0
-49 51 52 0
-11 -12 -49 52 0
11 12 49 -52 0
-12 -13 53 0
-13 -51 53 0
-12 -51 53 0
12 13 -53 0
13 51 -53 0
12 51 -53 0
13 -53 -54 0
12 -53 -54 0
51 -53 -54 0
-13 53 54 0
-12 53 54 0
-51 53 54 0
-12 -13 -51 54 0
12 13 51 -54 0
-13 -14 55 0
-14 -53 55 0
-13 -53 55 0
13 14 -55 0
14 53 -55 0
13 53 -55 0
14 -55 -56 0
13 -55 -56 0
53 -55 -56 0
-14 55 56 0
-13 55 56 0
-53 55 56 0
-13 -14 -53 56 0
13 14 53 -56 0
-14 -15 57 0
-15 -55 57 0
-14 -55 57 0
14 15 -57 0
15 55 -57 0
14 55 -57 0
15 -57 -58 0
14 -57 -58 0
55 -57 -58 0
-15 57 58 0
-14 57 58 0
-55 57 58 0
-14 -15 -55 58 0
14 15 55 -58 0
-15 -16 59 0
-16 -57 59 0
-15 -57 59 0
15 16 -59 0
16 57 -59 0
15 57 -59 0
16 -59 -60 0
15 -59 -60 0
57 -59 -60 0
-16 59 60 0
-15 59 60 0
-57 59 60 0
-15 -16 -57 60 0
15 16 57 -60 0
16 -61 0
59 -61 0
-16 -59 61 0
-16 -59 -62 0
16 59 -62 0
-16 59 62 0
16 -59 62 0
50 -63 0
9 -63 0
-9 -50 63 0
-9 -50 -64 0
9 50 -64 0
9 -50 64 0
-9 50 64 0
-10 -52 65 0
-52 -63 65 0
-10 -63 65 0
10 52 -65 0
52 63 -65 0
10 63 -65 0
52 -65 -66 0
10 -65 -66 0
63 -65 -66 0
-52 65 66 0
-10 65 66 0
-63 65 66 0
-10 -52 -63 66 0
10 52 63 -66 0
-11 -54 67 0
-54 -65 67 0
-11 -65 67 0
11 54 -67 0
54 65 -67 0
11 65 -67 0
54 -67 -68 0
11 -67 -68 0
65 -67 -68 0
-54 67 68 0
-11 67 68 0
-65 67 68 0
-11 -54 -65 68 0
11 54 65 -68 0
-12 -56 69 0
-56 -67 69 0
-12 -67 69 0
12 56 -69 0
56 67 -69 0
12 67 -69 0
56 -69 -70 0
12 -69 -70 0
67 -69 -70 0
-56 69 70 0
-12 69 70 0
-67 69 70 0
-12 -56 -67 70 0
12 56 67 -70 0
-13 -58 71 0
-58 -69 71 0
-13 -69 71 0
13 58 -71 0
58 69 -71 0
13 69 -71 0
58 -71 -72 0
13 -71 -72 0
69 -71 -72 0
-58 71 72 0
-13 71 72 0
-69 71 72 0
-13 -58 -69 72 0
13 58 69 -72 0
-14 -60 73 0
-60 -71 73 0
-14 -71 73 0
14 60 -73 0
60 71 -73 0
14 71 -73 0
60 -73 -74 0
14 -73 -74 0
71 -73 -74 0
-60 73 74 0
-14 73 74 0
-71 73 74 0
-14 -60 -71 74 0
14 60 71 -74 0
-15 -62 75 0
-62 -73 75 0
-15 -73 75 0
15 62 -75 0
62 73 -75 0
15 73 -75 0
62 -75 -76 0
15 -75 -76 0
73 -75 -76 0
-62 75 76 0
-15 75 76 0
-73 75 76 0
-15 -62 -73 76 0
15 62 73 -76 0
-16 -61 77 0
-61 -75 77 0
-16 -75 77 0
16 61 -77 0
61 75 -77 0
16 75 -77 0
61 -77 -78 0
16 -77 -78 0
75 -77 -78 0
-61 77 78 0
-16 77 78 0
-75 77 78 0
-16 -61 -75 78 0
16 61 75 -78 0
66 -79 0
9 -79 0
-9 -66 79 0
-9 -66 -80 0
9 66 -80 0
9 -66 80 0
-9 66 80 0
-10 -68 81 0
-68 -79 81 0
-10 -79 81 0
10 68 -81 0
68 79 -81 0
10 79 -81 0
68 -81 -82 0
10 -81 -82 0
79 -81 -82 0
-68 81 82 0
-10 81 82 0
-79 81 82 0
-10 -68 -79 82 0
10 68 79 -82 0
-11 -70 83 0
-70 -81 83 0
-11 -81 83 0
11 70 -83 0
70 81 -83 0
11 81 -83 0
70 -83 -84 0
11 -83 -84 0
81 -83 -84 0
-70 83 84 0
-11 83 84 0
-81 83 84 0
-11 -70 -81 84 0
11 70 81 -84 0
-12 -72 85 0
-72 -83 85 0
-12 -83 85 0
12 72 -85 0
72 83 -85 0
12 83 -85 0
72 -85 -86 0
12 -85 -86 0
83 -85 -86 0
-72 85 86 0
-12 85 86 0
-83 85 86 0
-12 -72 -83 86 0
12 72 83 -86 0
-13 -74 87 0
-74 -85 87 0
-13 -85 87 0
13 74 -87 0
74 85 -87 0
13 85 -87 0
74 -87 -88 0
13 -87 -88 0
85 -87 -88 0
-74 87 88 0
-13 87 88 0
-85 87 88 0
-13 -74 -85 88 0
13 74 85 -88 0
-14 -76 89 0
-76 -87 89 0
-14 -87 89 0
14 76 -89 0
76 87 -89 0
14 87 -89 0
76 -89 -90 0
14 -89 -90 0
87 -89 -90 0
-76 89 90 0
-14 89 90 0
-87 89 90 0
-14 -76 -87 90 0
14 76 87 -90 0
-15 -78 91 0
-78 -89 91 0
-15 -89 91 0
15 78 -91 0
78 89 -91 0
15 89 -91 0
78 -91 -92 0
15 -91 -92 0
89 -91 -92 0
-78 91 92 0
-15 91 92 0
-89 91 92 0
-15 -78 -89 92 0
15 78 89 -92 0
-16 -77 93 0
-77 -91 93 0
-16 -91 93 0
16 77 -93 0
77 91 -93 0
16 91 -93 0
77 -93 -94 0
16 -93 -94 0
91 -93 -94 0
-77 93 94 0
-16 93 94 0
-91 93 94 0
-16 -77 -91 94 0
16 77 91 -94 0
-9 -95 0
-48 -95 0
9 48 95 0
9 48 -96 0
-9 -48 -96 0
-9 48 96 0
9 -48 96 0
95 -97 0
-64 -97 0
64 -95 97 0
64 -95 -98 0
-64 95 -98 0
64 95 98 0
-64 -95 98 0
97 -99 0
-80 -99 0
80 -97 99 0
80 -97 -100 0
-80 97 -100 0
80 97 100 0
-80 -97 100 0
99 -101 0
-82 -101 0
82 -99 101 0
82 -99 -102 0
-82 99 -102 0
82 99 102 0
-82 -99 102 0
101 -103 0
-84 -103 0
84 -101 103 0
84 -101 -104 0
-84 101 -104 0
84 101 104 0
-84 -101 104 0
103 -105 0
-86 -105 0
86 -103 105 0
86 -103 -106 0
-86 103 -106 0
86 103 106 0
-86 -103 106 0
105 -107 0
-88 -107 0
88 -105 107 0
88 -105 -108 0
-88 105 -108 0
88 105 108 0
-88 -105 108 0
107 -109 0
-90 -109 0
90 -107 109 0
90 -107 -110 0
-90 107 -110 0
90 107 110 0
-90 -107 110 0
109 -111 0
-92 -111 0
92 -109 111 0
92 -109 -112 0
-92 109 -112 0
92 109 112 0
-92 -109 112 0
111 -113 0
-94 -113 0
94 -111 113 0
94 -111 -114 0
-94 111 -114 0
94 111 114 0
-94 -111 114 0
113 -115 0
-93 -115 0
93 -113 115 0
93 -113 -116 0
-93 113 -116 0
93 113 116 0
-93 -113 116 0
3 -117 0
9 -117 0
-3 -9 117 0
-3 -9 -118 0
3 9 -118 0
-3 9 118 0
3 -9 118 0
-4 -48 119 0
-4 -117 119 0
-48 -117 119 0
4 48 -119 0
4 117 -119 0
48 117 -119 0
4 -119 -120 0
48 -119 -120 0
117 -119 -120 0
-4 119 120 0
-48 119 120 0
-117 119 120 0
-4 -48 -117 120 0
4 48 117 -120 0
-5 -64 121 0
-5 -119 121 0
-64 -119 121 0
5 64 -121 0
5 119 -121 0
64 119 -121 0
5 -121 -122 0
64 -121 -122 0
119 -121 -122 0
-5 121 122 0
-64 121 122 0
-119 121 122 0
-5 -64 -119 122 0
5 64 119 -122 0
-6 -80 123 0
-6 -121 123 0
-80 -121 123 0
6 80 -123 0
6 121 -123 0
80 121 -123 0
6 -123 -124 0
80 -123 -124 0
121 -123 -124 0
-6 123 124 0
-80 123 124 0
-121 123 124 0
-6 -80 -121 124 0
6 80 121 -124 0
-7 -82 125 0
-7 -123 125 0
-82 -123 125 0
7 82 -125 0
7 123 -125 0
82 123 -125 0
7 -125 -126 0
82 -125 -126 0
123 -125 -126 0
-7 125 126 0
-82 125 126 0
-123 125 126 0
-7 -82 -123 126 0
7 82 123 -126 0
-8 -84 127 0
-8 -125 127 0
-84 -125 127 0
8 84 -127 0
8 125 -127 0
84 125 -127 0
8 -127 -128 0
84 -127 -128 0
125 -127 -128 0
-8 127 128 0
-84 127 128 0
-125 127 128 0
-8 -84 -125 128 0
8 84 125 -128 0
86 -129 0
127 -129 0
-86 -127 129 0
-86 -127 -130 0
86 127 -130 0
-86 127 130 0
86 -127 130 0
88 -131 0
129 -131 0
-88 -129 131 0
-88 -129 -132 0
88 129 -132 0
-88 129 132 0
88 -129 132 0
90 -133 0
131 -133 0
-90 -131 133 0
-90 -131 -134 0
90 131 -134 0
-90 131 134 0
90 -131 134 0
92 -135 0
133 -135 0
-92 -133 135 0
-92 -133 -136 0
92 133 -136 0
-92 133 136 0
92 -133 136 0
94 -137 0
135 -137 0
-94 -135 137 0
-94 -135 -138 0
94 135 -138 0
-94 135 138 0
94 -135 138 0
93 -139 0
137 -139 0
-93 -137 139 0
-93 -137 -140 0
93 137 -140 0
-93 137 140 0
93 -137 140 0
-1 -141 0
2 -141 0
118 -141 0
120 -141 0
122 -141 0
-124 -141 0
-126 -141 0
-128 -141 0
-130 -141 0
-132 -141 0
-134 -141 0
-136 -141 0
-138 -141 0
-139 -141 0
-140 -141 0
1 -2 -118 -120 -122 124 126 128 130 132 134 136 138 139 140 141 0
141 0
c main::$tmp::return_value_nondet_char!0@1#1 17 18 19 20 21 22 23 24
c symex::nondet1 9 10 11 12 13 14 15 16
c symex::nondet0 1 2 3 4 5 6 7 8
c main::$tmp::return_value_nondet_char$0!0@1#2 9 10 11 12 13 14 15 16
c __CPROVER_rounding_mode!0#1 FALSE FALSE FALSE FALSE FALSE FALSE FALSE FALSE FALSE FALSE FALSE FALSE FALSE FALSE FALSE FALSE FALSE FALSE FALSE FALSE FALSE FALSE FALSE FALSE FALSE FALSE FALSE FALSE FALSE FALSE FALSE FALSE
c main::$tmp::return_value_nondet_char$0!0@1#1 25 26 27 28 29 30 31 32
c __CPROVER_memory_leak#1 FALSE FALSE FALSE FALSE FALSE FALSE FALSE FALSE FALSE FALSE FALSE FALSE FALSE FALSE FALSE FALSE FALSE FALSE FALSE FALSE FALSE FALSE FALSE FALSE FALSE FALSE FALSE FALSE FALSE FALSE FALSE FALSE FALSE FALSE FALSE FALSE FALSE FALSE FALSE FALSE FALSE FALSE FALSE FALSE FALSE FALSE FALSE FALSE FALSE FALSE FALSE FALSE FALSE FALSE FALSE FALSE FALSE FALSE FALSE FALSE FALSE FALSE FALSE FALSE
c __CPROVER_max_malloc_size#1 FALSE FALSE FALSE FALSE FALSE FALSE FALSE FALSE FALSE FALSE FALSE FALSE FALSE FALSE FALSE FALSE FALSE FALSE FALSE FALSE FALSE FALSE FALSE FALSE FALSE FALSE FALSE FALSE FALSE FALSE FALSE FALSE FALSE FALSE FALSE FALSE FALSE FALSE FALSE FALSE FALSE FALSE FALSE FALSE FALSE FALSE FALSE FALSE FALSE FALSE FALSE FALSE FALSE FALSE FALSE TRUE FALSE FALSE FALSE FALSE FALSE FALSE FALSE FALSE
c __CPROVER_deallocated#1 FALSE FALSE FALSE FALSE FALSE FALSE FALSE FALSE FALSE FALSE FALSE FALSE FALSE FALSE FALSE FALSE FALSE FALSE FALSE FALSE FALSE FALSE FALSE FALSE FALSE FALSE FALSE FALSE FALSE FALSE FALSE FALSE FALSE FALSE FALSE FALSE FALSE FALSE FALSE FALSE FALSE FALSE FALSE FALSE FALSE FALSE FALSE FALSE FALSE FALSE FALSE FALSE FALSE FALSE FALSE FALSE FALSE FALSE FALSE FALSE FALSE FALSE FALSE FALSE
c main::$tmp::return_value_nondet_char!0@1#2 1 2 3 4 5 6 7 8
c __CPROVER_dead_object#1 FALSE FALSE FALSE FALSE FALSE FALSE FALSE FALSE FALSE FALSE FALSE FALSE FALSE FALSE FALSE FALSE FALSE FALSE FALSE FALSE FALSE FALSE FALSE FALSE FALSE FALSE FALSE FALSE FALSE FALSE FALSE FALSE FALSE FALSE FALSE FALSE FALSE FALSE FALSE FALSE FALSE FALSE FALSE FALSE FALSE FALSE FALSE FALSE FALSE FALSE FALSE FALSE FALSE FALSE FALSE FALSE FALSE FALSE FALSE FALSE FALSE FALSE FALSE FALSE
